c Line Graph - Bad case for Dinics
c 128 vertices
p max 128 253
n 1 s
n 128 t
a 1 128 1
a 1 2 128
a 2 128 1
a 2 3 128
a 3 128 1
a 3 4 128
a 4 128 1
a 4 5 128
a 5 128 1
a 5 6 128
a 6 128 1
a 6 7 128
a 7 128 1
a 7 8 128
a 8 128 1
a 8 9 128
a 9 128 1
a 9 10 128
a 10 128 1
a 10 11 128
a 11 128 1
a 11 12 128
a 12 128 1
a 12 13 128
a 13 128 1
a 13 14 128
a 14 128 1
a 14 15 128
a 15 128 1
a 15 16 128
a 16 128 1
a 16 17 128
a 17 128 1
a 17 18 128
a 18 128 1
a 18 19 128
a 19 128 1
a 19 20 128
a 20 128 1
a 20 21 128
a 21 128 1
a 21 22 128
a 22 128 1
a 22 23 128
a 23 128 1
a 23 24 128
a 24 128 1
a 24 25 128
a 25 128 1
a 25 26 128
a 26 128 1
a 26 27 128
a 27 128 1
a 27 28 128
a 28 128 1
a 28 29 128
a 29 128 1
a 29 30 128
a 30 128 1
a 30 31 128
a 31 128 1
a 31 32 128
a 32 128 1
a 32 33 128
a 33 128 1
a 33 34 128
a 34 128 1
a 34 35 128
a 35 128 1
a 35 36 128
a 36 128 1
a 36 37 128
a 37 128 1
a 37 38 128
a 38 128 1
a 38 39 128
a 39 128 1
a 39 40 128
a 40 128 1
a 40 41 128
a 41 128 1
a 41 42 128
a 42 128 1
a 42 43 128
a 43 128 1
a 43 44 128
a 44 128 1
a 44 45 128
a 45 128 1
a 45 46 128
a 46 128 1
a 46 47 128
a 47 128 1
a 47 48 128
a 48 128 1
a 48 49 128
a 49 128 1
a 49 50 128
a 50 128 1
a 50 51 128
a 51 128 1
a 51 52 128
a 52 128 1
a 52 53 128
a 53 128 1
a 53 54 128
a 54 128 1
a 54 55 128
a 55 128 1
a 55 56 128
a 56 128 1
a 56 57 128
a 57 128 1
a 57 58 128
a 58 128 1
a 58 59 128
a 59 128 1
a 59 60 128
a 60 128 1
a 60 61 128
a 61 128 1
a 61 62 128
a 62 128 1
a 62 63 128
a 63 128 1
a 63 64 128
a 64 128 1
a 64 65 128
a 65 128 1
a 65 66 128
a 66 128 1
a 66 67 128
a 67 128 1
a 67 68 128
a 68 128 1
a 68 69 128
a 69 128 1
a 69 70 128
a 70 128 1
a 70 71 128
a 71 128 1
a 71 72 128
a 72 128 1
a 72 73 128
a 73 128 1
a 73 74 128
a 74 128 1
a 74 75 128
a 75 128 1
a 75 76 128
a 76 128 1
a 76 77 128
a 77 128 1
a 77 78 128
a 78 128 1
a 78 79 128
a 79 128 1
a 79 80 128
a 80 128 1
a 80 81 128
a 81 128 1
a 81 82 128
a 82 128 1
a 82 83 128
a 83 128 1
a 83 84 128
a 84 128 1
a 84 85 128
a 85 128 1
a 85 86 128
a 86 128 1
a 86 87 128
a 87 128 1
a 87 88 128
a 88 128 1
a 88 89 128
a 89 128 1
a 89 90 128
a 90 128 1
a 90 91 128
a 91 128 1
a 91 92 128
a 92 128 1
a 92 93 128
a 93 128 1
a 93 94 128
a 94 128 1
a 94 95 128
a 95 128 1
a 95 96 128
a 96 128 1
a 96 97 128
a 97 128 1
a 97 98 128
a 98 128 1
a 98 99 128
a 99 128 1
a 99 100 128
a 100 128 1
a 100 101 128
a 101 128 1
a 101 102 128
a 102 128 1
a 102 103 128
a 103 128 1
a 103 104 128
a 104 128 1
a 104 105 128
a 105 128 1
a 105 106 128
a 106 128 1
a 106 107 128
a 107 128 1
a 107 108 128
a 108 128 1
a 108 109 128
a 109 128 1
a 109 110 128
a 110 128 1
a 110 111 128
a 111 128 1
a 111 112 128
a 112 128 1
a 112 113 128
a 113 128 1
a 113 114 128
a 114 128 1
a 114 115 128
a 115 128 1
a 115 116 128
a 116 128 1
a 116 117 128
a 117 128 1
a 117 118 128
a 118 128 1
a 118 119 128
a 119 128 1
a 119 120 128
a 120 128 1
a 120 121 128
a 121 128 1
a 121 122 128
a 122 128 1
a 122 123 128
a 123 128 1
a 123 124 128
a 124 128 1
a 124 125 128
a 125 128 1
a 125 126 128
a 126 128 1
a 126 127 128
a 127 128 128
